c description: Counting Principle: 6 divided in parts of size 2.
c generator: CNFgen (0.9.0)
c copyright: (C) 2012-2020 Massimo Lauria <massimo.lauria@uniroma1.it>
c url: https://massimolauria.net/cnfgen
c command line: cnfgen parity 6
c
p cnf 15 66
-1 -2 0
-1 -3 0
-1 -4 0
-1 -5 0
-2 -3 0
-2 -4 0
-2 -5 0
-3 -4 0
-3 -5 0
-4 -5 0
1 2 3 4 5 0
-1 -6 0
-1 -7 0
-1 -8 0
-1 -9 0
-6 -7 0
-6 -8 0
-6 -9 0
-7 -8 0
-7 -9 0
-8 -9 0
1 6 7 8 9 0
-2 -6 0
-2 -10 0
-2 -11 0
-2 -12 0
-6 -10 0
-6 -11 0
-6 -12 0
-10 -11 0
-10 -12 0
-11 -12 0
2 6 10 11 12 0
-3 -7 0
-3 -10 0
-3 -13 0
-3 -14 0
-7 -10 0
-7 -13 0
-7 -14 0
-10 -13 0
-10 -14 0
-13 -14 0
3 7 10 13 14 0
-4 -8 0
-4 -11 0
-4 -13 0
-4 -15 0
-8 -11 0
-8 -13 0
-8 -15 0
-11 -13 0
-11 -15 0
-13 -15 0
4 8 11 13 15 0
-5 -9 0
-5 -12 0
-5 -14 0
-5 -15 0
-9 -12 0
-9 -14 0
-9 -15 0
-12 -14 0
-12 -15 0
-14 -15 0
5 9 12 14 15 0
